words_easy_train/words_999_SAT.qaiger
aag 55 16 0 1 39
20
4
24
12
22
26
30
32
6
8
14
18
2
28
16
10
111
34 27 25
36 34 29
38 36 31
40 39 33
42 40 14
44 38 32
46 45 41
48 33 13
50 49 10
52 51 47
54 46 10
56 37 30
58 57 39
60 58 9
62 59 8
64 35 28
66 65 37
68 67 6
70 5 3
72 26 4
74 25 3
76 75 72
78 77 35
80 79 71
82 66 7
84 83 80
86 85 69
88 86 63
90 89 61
92 91 55
94 93 53
96 94 42
98 41 15
100 98 13
102 100 95
104 103 97
106 105 16
108 104 17
110 109 107
i0 1 x1[1]
i1 2 y1[1]
i2 1 x1[3]
i3 2 y1[5]
i4 1 x1[2]
i5 1 x1[4]
i6 1 x1[6]
i7 1 x1[7]
i8 2 y1[2]
i9 2 y1[3]
i10 2 y1[6]
i11 1 x1[0]
i12 2 y1[0]
i13 1 x1[5]
i14 2 y1[7]
i15 2 y1[4]
o0 bv[0]
c
simplified
  >=
    2 y1
    subtract
      1
      >> 3
        1 x1
