words_easy_train/words_999_SAT.qaiger.qdimacs
p cnf 55 118
a 9 10 11 12 13 14 15 16 0
e 1 2 3 4 5 6 7 8 17 18 19 20 21 22 23 24 25 26 27 28 29 30 31 32 33 34 35 36 37 38 39 40 41 42 43 44 45 46 47 48 49 50 51 52 53 54 55 0
13 12 17 0
-13 -17 0
-12 -17 0
-17 14 18 0
17 -18 0
-14 -18 0
-18 15 19 0
18 -19 0
-15 -19 0
19 16 20 0
-19 -20 0
-16 -20 0
-20 -7 21 0
20 -21 0
7 -21 0
-19 -16 22 0
19 -22 0
16 -22 0
22 20 23 0
-22 -23 0
-20 -23 0
16 6 24 0
-16 -24 0
-6 -24 0
24 -5 25 0
-24 -25 0
5 -25 0
25 23 26 0
-25 -26 0
-23 -26 0
-23 -5 27 0
23 -27 0
5 -27 0
18 -15 28 0
-18 -28 0
15 -28 0
28 19 29 0
-28 -29 0
-19 -29 0
-29 4 30 0
29 -30 0
-4 -30 0
29 -4 31 0
-29 -31 0
4 -31 0
17 -14 32 0
-17 -32 0
14 -32 0
32 18 33 0
-32 -33 0
-18 -33 0
33 -3 34 0
-33 -34 0
3 -34 0
2 1 35 0
-2 -35 0
-1 -35 0
-13 -2 36 0
13 -36 0
2 -36 0
12 1 37 0
-12 -37 0
-1 -37 0
37 -36 38 0
-37 -38 0
36 -38 0
38 17 39 0
-38 -39 0
-17 -39 0
39 35 40 0
-39 -40 0
-35 -40 0
-33 3 41 0
33 -41 0
-3 -41 0
41 -40 42 0
-41 -42 0
40 -42 0
42 34 43 0
-42 -43 0
-34 -43 0
-43 31 44 0
43 -44 0
-31 -44 0
44 30 45 0
-44 -45 0
-30 -45 0
45 27 46 0
-45 -46 0
-27 -46 0
46 26 47 0
-46 -47 0
-26 -47 0
-47 -21 48 0
47 -48 0
21 -48 0
20 7 49 0
-20 -49 0
-7 -49 0
-49 6 50 0
49 -50 0
-6 -50 0
-50 47 51 0
50 -51 0
-47 -51 0
51 48 52 0
-51 -52 0
-48 -52 0
52 -8 53 0
-52 -53 0
8 -53 0
-52 8 54 0
52 -54 0
-8 -54 0
54 53 55 0
-54 -55 0
-53 -55 0
-55 0
